/*********************************************
 * OPL 12.6.0.0 Data
 * Author: Adrian Rodriguez Bazaga, Pau Rodriguez Esmerats
 * Creation Date: 06/12/2017 at 23:03:11
 *********************************************/

nNurses=301;
maxConsec=2;
maxPresence=7;
maxHours=5;
minHours=1;
hours=24;
demand= [60 45 75 82 45 75 82 49 43 28 4 9 5 10 8 6 6 4 4 1 39 78 42 70  ];
